c 0.0012307167053222656 (encode time in sec)
p cnf 57 71
1 2 3 4 0
1 2 -3 5 0
1 -2 3 6 0
1 -2 -3 8 0
-1 2 3 7 0
-1 2 -3 0
-1 -2 3 0
-1 -2 -3 0
9 1 2 3 10 0
9 1 2 -3 11 0
9 1 -2 3 13 0
9 1 -2 -3 12 0
9 -1 2 3 14 0
-9 1 2 3 15 0
-9 1 2 -3 16 0
-9 1 -2 3 17 0
-9 1 -2 -3 18 0
-9 -1 2 3 19 0
20 21 22 9 1 2 3 23 0
20 21 22 9 1 2 -3 24 0
20 21 22 9 1 -2 3 25 0
20 21 22 9 1 -2 -3 27 0
20 21 22 9 -1 2 3 26 0
20 21 22 -9 1 2 3 28 0
20 21 22 -9 1 2 -3 29 0
20 21 22 -9 1 -2 3 43 0
20 21 22 -9 1 -2 -3 30 0
20 21 22 -9 -1 2 3 31 0
20 21 -22 9 1 2 3 44 0
20 21 -22 9 1 2 -3 35 0
20 21 -22 9 1 -2 3 34 0
20 21 -22 9 1 -2 -3 32 0
20 21 -22 9 -1 2 3 37 0
20 21 -22 -9 1 2 3 57 0
20 21 -22 -9 1 2 -3 50 0
20 21 -22 -9 1 -2 3 41 0
20 21 -22 -9 1 -2 -3 33 0
20 21 -22 -9 -1 2 3 51 0
20 -21 22 9 1 2 3 53 0
20 -21 22 9 1 2 -3 39 0
20 -21 22 9 1 -2 3 55 0
20 -21 22 9 1 -2 -3 52 0
20 -21 22 9 -1 2 3 45 0
20 -21 22 -9 1 2 3 46 0
20 -21 22 -9 1 2 -3 36 0
20 -21 22 -9 1 -2 3 47 0
20 -21 22 -9 1 -2 -3 56 0
20 -21 22 -9 -1 2 3 51 0
20 -21 -22 9 1 2 3 53 0
20 -21 -22 9 1 2 -3 39 0
20 -21 -22 9 1 -2 3 55 0
20 -21 -22 9 1 -2 -3 52 0
20 -21 -22 9 -1 2 3 45 0
20 -21 -22 -9 1 2 3 48 0
20 -21 -22 -9 1 2 -3 40 0
20 -21 -22 -9 1 -2 3 54 0
20 -21 -22 -9 1 -2 -3 42 0
20 -21 -22 -9 -1 2 3 31 0
-20 21 22 9 1 2 3 53 0
-20 21 22 9 1 2 -3 39 0
-20 21 22 9 1 -2 3 55 0
-20 21 22 9 1 -2 -3 52 0
-20 21 22 9 -1 2 3 45 0
-20 21 22 -9 1 2 3 38 0
-20 21 22 -9 1 2 -3 40 0
-20 21 22 -9 1 -2 3 49 0
-20 21 22 -9 1 -2 -3 42 0
-20 21 22 -9 -1 2 3 31 0
-20 21 -22 0
-20 -21 22 0
-20 -21 -22 0
